Log file: C:\Users\user\robust_bilevel_network_games\true_dro\S20_beta0p8_cov95\log_sioux_falls_S20_20260417_233129674_gamma1.txt
Started: 2026-04-17T23:31:29.674

======================================================================
INSTANCE: sioux_falls (S=20, β=0.8, γ=1, ε̂=0.49, ε̃=0.49)
  Settings: MW cuts, mincut VI, inexact=false, mini-benders
======================================================================
============================================================
Sioux-Falls Network Summary
============================================================
Number of nodes: 24
Number of arcs (incl. dummy): 77
Number of regular arcs: 76
Number of interdictable arcs: 66
Source node: s (1)
Sink node: t (24)
Node-incidence matrix N dimensions: (23, 77)

Sparsity Information:
  Arc-arc adjacency: 864 / 5776 pairs (85.0% sparse)
  Node-arc incidence: 148 / 1748 pairs (91.5% sparse)

First 15 arcs:
  Arc 1: ("10", "11") [Interdictable: ✓]
  Arc 2: ("10", "15") [Interdictable: ✓]
  Arc 3: ("10", "16") [Interdictable: ✓]
  Arc 4: ("10", "17") [Interdictable: ✓]
  Arc 5: ("10", "9") [Interdictable: ✓]
  Arc 6: ("11", "10") [Interdictable: ✓]
  Arc 7: ("11", "12") [Interdictable: ✓]
  Arc 8: ("11", "14") [Interdictable: ✓]
  Arc 9: ("11", "4") [Interdictable: ✓]
  Arc 10: ("12", "11") [Interdictable: ✓]
  Arc 11: ("12", "13") [Interdictable: ✓]
  Arc 12: ("12", "3") [Interdictable: ✓]
  Arc 13: ("13", "12") [Interdictable: ✓]
  Arc 14: ("13", "t") [Interdictable: ✗]
  Arc 15: ("14", "11") [Interdictable: ✓]
============================================================
  |A|=76, S=20, γ=1, w=0.9902, λU=2.0
  ε̂=0.49, ε̃=0.49

----------------------------------------
VI-only OMP diagnostic (no Benders cuts)
Set parameter Username
Set parameter LicenseID to value 2742039
Academic license - for non-commercial use only - expires 2026-11-20
Set parameter OutputFlag to value 1
Set parameter OutputFlag to value 1
Gurobi Optimizer version 13.0.0 build v13.0.0rc1 (win64 - Windows 10.0 (19045.2))

CPU model: AMD Ryzen 9 5900X 12-Core Processor, instruction set [SSE2|AVX|AVX2]
Thread count: 12 physical cores, 24 logical processors, using up to 24 threads

Optimize a model with 6112 rows, 3577 columns and 18067 nonzeros (Min)
Model fingerprint: 0xdf7bf1fb
Model has 1 linear objective coefficients
Variable types: 3501 continuous, 76 integer (76 binary)
Coefficient statistics:
  Matrix range     [2e-02, 1e+00]
  Objective range  [1e+00, 1e+00]
  Bounds range     [1e+00, 1e+04]
  RHS range        [1e+00, 1e+00]
Found heuristic solution: objective 75.8358076
Presolve removed 2271 rows and 553 columns
Presolve time: 0.03s
Presolved: 3841 rows, 3024 columns, 8984 nonzeros
Found heuristic solution: objective 55.7240525
Variable types: 2960 continuous, 64 integer (64 binary)

Root relaxation: objective 8.351084e+00, 1351 iterations, 0.00 seconds (0.02 work units)

    Nodes    |    Current Node    |     Objective Bounds      |     Work
 Expl Unexpl |  Obj  Depth IntInf | Incumbent    BestBd   Gap | It/Node Time

*    0     0               0       8.3510839    8.35108  0.00%     -    0s

Explored 1 nodes (1351 simplex iterations) in 0.06 seconds (0.06 work units)
Thread count was 24 (of 24 available processors)

Solution count 3: 8.35108 55.7241 75.8358 

Optimal solution found (tolerance 1.00e-04)
Best objective 8.351083865569e+00, best bound 8.351083865569e+00, gap 0.0000%

User-callback calls 40, time in user-callback 0.00 sec
  VI-only LB = 8.351084, x = [0, 0, 0, 0, 0, 0, 0, 0, 0, 0, 0, 0, 0, 0, 0, 0, 0, 0, 0, 0, 0, 0, 0, 0, 0, 0, 0, 0, 0, 0, 0, 0, 0, 0, 0, 0, 0, 0, 0, 0, 0, 0, 0, 0, 0, 0, 0, 0, 0, 0, 0, 1, 0, 0, 0, 0, 0, 0, 0, 0, 0, 0, 0, 0, 0, 0, 0, 0, 0, 0, 0, 0, 0, 0, 0, 0]
----------------------------------------

======================================================================
True-DRO Benders
======================================================================
Set parameter Username
Set parameter LicenseID to value 2742039
Academic license - for non-commercial use only - expires 2026-11-20
Set parameter Username
Set parameter LicenseID to value 2742039
Academic license - for non-commercial use only - expires 2026-11-20
Set parameter Username
Set parameter LicenseID to value 2742039
Academic license - for non-commercial use only - expires 2026-11-20
Set parameter Username
Set parameter LicenseID to value 2742039
Academic license - for non-commercial use only - expires 2026-11-20
Set parameter Username
Set parameter LicenseID to value 2742039
Academic license - for non-commercial use only - expires 2026-11-20

=== True-DRO Benders iter 1 ===
  OMP: t₀=8.351084, UB=Inf, gap=NaN, x=[0, 0, 0, 0, 0, 0, 0, 0, 0, 0, 0, 0, 0, 0, 0, 0, 0, 0, 0, 0, 0, 0, 0, 0, 0, 0, 0, 0, 0, 0, 0, 0, 0, 0, 0, 0, 0, 0, 0, 0, 0, 0, 0, 0, 0, 0, 0, 0, 0, 0, 0, 1, 0, 0, 0, 0, 0, 0, 0, 0, 0, 0, 0, 0, 0, 0, 0, 0, 0, 0, 0, 0, 0, 0, 0, 0] (0.060s)
  Sub: Z₀=19.052138, α=[0.000,0.000,0.000,0.000,0.000,0.000,0.000,0.000,0.000,0.000,0.000,0.000,0.000,0.000,0.000,0.000,0.000,0.000,0.000,0.000,0.000,0.000,0.000,0.000,0.000,0.000,0.000,0.000,0.000,0.000,0.000,0.000,0.000,0.000,0.000,0.000,0.000,0.000,0.000,0.000,0.000,0.000,0.000,0.000,0.000,0.000,0.000,0.000,0.000,0.000,0.037,0.954,0.000,0.000,0.000,0.000,0.000,0.000,0.000,0.000,0.000,0.000,0.000,0.000,0.000,0.000,0.000,0.000,0.000,0.000,0.000,0.000,0.000,0.000,0.000,0.000]
  Iter 1: LB=8.351084  UB=19.052138  gap=5.62e-01
  Cut: intercept=6.852790, π_x_range=[-75.0000, 12.1993]
  Sherali-Cut: intercept=22.245124, π_x_range=[-62.0000, -0.0054]
  Mini-Benders[1] (mw): LB=10.436154, Z₀(α*)=23.153678, intercept=24.378296
  Mini-Benders[2] (mw): LB=11.887679, Z₀(α*)=24.808852, intercept=24.725795
  Mini-Benders[3] (mw): LB=14.043610, Z₀(α*)=27.662706, intercept=22.488561
  Mini-Benders[4] (mw): LB=14.485767, Z₀(α*)=21.351955, intercept=25.512848
  Mini-Benders[5] (mw): LB=14.763003, Z₀(α*)=28.157059, intercept=28.401557
  α-step: Z₀=28.106187, α=[0.000,0.000,0.000,0.000,0.000,0.000,0.000,0.000,0.000,0.000,0.375,0.000,0.000,0.000,0.000,0.000,0.000,0.000,0.000,0.000,0.000,0.000,0.000,0.000,0.000,0.000,0.000,0.000,0.000,0.000,0.000,0.000,0.000,0.000,0.000,0.000,0.000,0.000,0.000,0.000,0.000,0.000,0.000,0.000,0.000,0.000,0.000,0.000,0.000,0.000,0.460,0.000,0.000,0.000,0.000,0.000,0.000,0.000,0.000,0.000,0.000,0.155,0.000,0.000,0.000,0.000,0.000,0.000,0.000,0.000,0.000,0.000,0.000,0.000,0.000,0.000]
  Alt-Benders[1] (mw): LB=15.626597, Z₀(α*)=27.834437, intercept=27.834436
  Alt-Benders[2] (mw): LB=19.052138, Z₀(α*)=17.775161, intercept=18.494464
  Alt-Benders[2]: gap=8.86e-10 ≤ tol, break
  OMP re-solve: 0.048s

=== True-DRO Benders iter 2 ===
  OMP: t₀=19.052138, UB=19.052138, gap=8.86e-10, x=[0, 0, 0, 0, 0, 0, 0, 0, 0, 0, 0, 0, 0, 0, 0, 0, 0, 0, 0, 0, 0, 0, 0, 0, 0, 0, 0, 0, 0, 0, 0, 0, 0, 0, 0, 0, 0, 0, 0, 0, 0, 0, 0, 0, 0, 0, 0, 0, 0, 0, 0, 1, 0, 0, 0, 0, 0, 0, 0, 0, 0, 0, 0, 0, 0, 0, 0, 0, 0, 0, 0, 0, 0, 0, 0, 0] (0.001s)
  Sub: Z₀=19.052138, α=[0.000,0.000,0.000,0.000,0.000,0.000,0.000,0.000,0.000,0.000,0.000,0.000,0.000,0.000,0.000,0.000,0.000,0.000,0.000,0.000,0.000,0.000,0.000,0.000,0.000,0.000,0.000,0.000,0.000,0.000,0.000,0.000,0.000,0.000,0.000,0.000,0.000,0.000,0.000,0.000,0.000,0.000,0.000,0.000,0.000,0.000,0.000,0.000,0.000,0.000,0.037,0.954,0.000,0.000,0.000,0.000,0.000,0.000,0.000,0.000,0.000,0.000,0.000,0.000,0.000,0.000,0.000,0.000,0.000,0.000,0.000,0.000,0.000,0.000,0.000,0.000]
  Iter 2: LB=19.052138  UB=19.052138  gap=8.86e-10
True-DRO Benders converged at iter 2 (gap=8.86e-10)
  Wall time: 6.87 sec
  OMP  time: mean=0.086s, median=0.081s, max=0.183s
  Sub  time (exact): mean=0.847s, median=0.847s, q90=0.886s, max=0.896s (n=2/2)

----------------------------------------
True-DRO: status=Optimal, Z₀=19.052138, iters=2, time=6.87s
  LB=19.052138, UB=19.052138, gap=8.86e-10
  x* = [0, 0, 0, 0, 0, 0, 0, 0, 0, 0, 0, 0, 0, 0, 0, 0, 0, 0, 0, 0, 0, 0, 0, 0, 0, 0, 0, 0, 0, 0, 0, 0, 0, 0, 0, 0, 0, 0, 0, 0, 0, 0, 0, 0, 0, 0, 0, 0, 0, 0, 0, 1, 0, 0, 0, 0, 0, 0, 0, 0, 0, 0, 0, 0, 0, 0, 0, 0, 0, 0, 0, 0, 0, 0, 0, 0]
============================================================
Primal Recovery: x* → α* → (h*, λ*, ψ⁰*)
============================================================
  x* = [0, 0, 0, 0, 0, 0, 0, 0, 0, 0, 0, 0, 0, 0, 0, 0, 0, 0, 0, 0, 0, 0, 0, 0, 0, 0, 0, 0, 0, 0, 0, 0, 0, 0, 0, 0, 0, 0, 0, 0, 0, 0, 0, 0, 0, 0, 0, 0, 0, 0, 0, 1, 0, 0, 0, 0, 0, 0, 0, 0, 0, 0, 0, 0, 0, 0, 0, 0, 0, 0, 0, 0, 0, 0, 0, 0]
  α* = [0.0000, 0.0000, 0.0000, 0.0000, 0.0000, 0.0000, 0.0000, 0.0000, 0.0000, 0.0000, 0.0000, 0.0000, 0.0000, 0.0000, 0.0000, 0.0000, 0.0000, 0.0000, 0.0000, 0.0000, 0.0000, 0.0000, 0.0000, 0.0000, 0.0000, 0.0000, 0.0000, 0.0000, 0.0000, 0.0000, 0.0000, 0.0000, 0.0000, 0.0000, 0.0000, 0.0000, 0.0000, 0.0000, 0.0000, 0.0000, 0.0000, 0.0000, 0.0000, 0.0000, 0.0000, 0.0000, 0.0000, 0.0000, 0.0000, 0.0000, 0.0366, 0.9536, 0.0000, 0.0000, 0.0000, 0.0000, 0.0000, 0.0000, 0.0000, 0.0000, 0.0000, 0.0000, 0.0000, 0.0000, 0.0000, 0.0000, 0.0000, 0.0000, 0.0000, 0.0000, 0.0000, 0.0000, 0.0000, 0.0000, 0.0000, 0.0000]

  Piece-F obj = 0.000000
  λ*   = -0.000000
  Σh*  = 0.000000  (budget: λw = -0.000000)

  h* (nonzero arcs):
  ψ⁰* (nonzero arcs):

  Per-scenario sink flow ỹ_ts:
    s=1: ỹ_ts=-0.000000
    s=2: ỹ_ts=-0.000000
    s=3: ỹ_ts=-0.000000
    s=4: ỹ_ts=-0.000000
    s=5: ỹ_ts=-0.000000
    s=6: ỹ_ts=-0.000000
    s=7: ỹ_ts=-0.000000
    s=8: ỹ_ts=-0.000000
    s=9: ỹ_ts=-0.000000
    s=10: ỹ_ts=-0.000000
    s=11: ỹ_ts=-0.000000
    s=12: ỹ_ts=-0.000000
    s=13: ỹ_ts=-0.000000
    s=14: ỹ_ts=-0.000000
    s=15: ỹ_ts=-0.000000
    s=16: ỹ_ts=-0.000000
    s=17: ỹ_ts=-0.000000
    s=18: ỹ_ts=-0.000000
    s=19: ỹ_ts=-0.000000
    s=20: ỹ_ts=-0.000000

  Z₀(Benders) = 19.052138
  Piece-F(recovered) = 0.000000

Finished: 2026-04-17T23:31:36.893
